\ENCODING=ISO-8859-1
\Problem name: ilog.cplex

Maximize
 obj: 594 x(0)#0 + 635 x(1)#1 + 719 x(2)#2 + 961 x(3)#3 + 582 x(4)#4
      + 856 x(5)#5 + 656 x(6)#6 + 692 x(7)#7 + 817 x(8)#8 + 722 x(9)#9
      + 802 x(10)#10 + 630 x(11)#11 + 600 x(12)#12 + 711 x(13)#13
      + 871 x(14)#14 + 701 x(15)#15 + 404 x(16)#16 + 769 x(17)#17
      + 967 x(18)#18 + 960 x(19)#19 + 842 x(20)#20 + 801 x(21)#21
      + 1086 x(22)#22 + 681 x(23)#23 + 559 x(24)#24 + 498 x(25)#25
      + 692 x(26)#26 + 823 x(27)#27 + 689 x(28)#28 + 707 x(29)#29
      + 1013 x(30)#30 + 816 x(31)#31 + 450 x(32)#32 + 867 x(33)#33
      + 862 x(34)#34 + 762 x(35)#35 + 914 x(36)#36 + 874 x(37)#37
      + 986 x(38)#38 + 597 x(39)#39 + 778 x(40)#40 + 1048 x(41)#41
      + 662 x(42)#42 + 854 x(43)#43 + 590 x(44)#44 + 1063 x(45)#45
      + 790 x(46)#46 + 750 x(47)#47 + 712 x(48)#48 + 1063 x(49)#49
      + 633 x(50)#50 + 488 x(51)#51 + 918 x(52)#52 + 437 x(53)#53
      + 836 x(54)#54 + 874 x(55)#55 + 988 x(56)#56 + 723 x(57)#57
      + 900 x(58)#58 + 537 x(59)#59 + 814 x(60)#60 + 897 x(61)#61
      + 778 x(62)#62 + 766 x(63)#63 + 492 x(64)#64 + 690 x(65)#65
      + 685 x(66)#66 + 630 x(67)#67 + 533 x(68)#68 + 687 x(69)#69
      + 947 x(70)#70 + 572 x(71)#71 + 927 x(72)#72 + 643 x(73)#73
      + 691 x(74)#74 + 647 x(75)#75 + 800 x(76)#76 + 821 x(77)#77
      + 940 x(78)#78 + 553 x(79)#79 + 755 x(80)#80 + 1009 x(81)#81
      + 756 x(82)#82 + 375 x(83)#83 + 352 x(84)#84 + 907 x(85)#85
      + 741 x(86)#86 + 621 x(87)#87 + 519 x(88)#88 + 1067 x(89)#89
      + 683 x(90)#90 + 516 x(91)#91 + 798 x(92)#92 + 776 x(93)#93
      + 924 x(94)#94 + 545 x(95)#95 + 644 x(96)#96 + 876 x(97)#97
      + 893 x(98)#98 + 797 x(99)#99
Subject To
 c1:  669 x(0)#0 + 147 x(1)#1 + 95 x(2)#2 + 407 x(3)#3 + 769 x(4)#4
      + 207 x(5)#5 + 981 x(6)#6 + 412 x(7)#7 + 903 x(8)#8 + 334 x(9)#9
      + 3 x(10)#10 + 215 x(11)#11 + 270 x(12)#12 + 86 x(13)#13 + 476 x(14)#14
      + 168 x(15)#15 + 345 x(16)#16 + 252 x(17)#17 + 465 x(18)#18
      + 457 x(19)#19 + 82 x(20)#20 + 372 x(21)#21 + 440 x(22)#22 + 760 x(23)#23
      + 581 x(24)#24 + 84 x(25)#25 + 60 x(26)#26 + 474 x(27)#27 + 896 x(28)#28
      + 968 x(29)#29 + 955 x(30)#30 + 319 x(31)#31 + 67 x(32)#32 + 403 x(33)#33
      + 233 x(34)#34 + 311 x(35)#35 + 139 x(36)#36 + 362 x(37)#37
      + 839 x(38)#38 + 984 x(39)#39 + 86 x(40)#40 + 361 x(41)#41 + 156 x(42)#42
      + 844 x(43)#43 + 702 x(44)#44 + 473 x(45)#45 + 975 x(46)#46 + 45 x(47)#47
      + 782 x(48)#48 + 928 x(49)#49 + 113 x(50)#50 + 392 x(51)#51
      + 566 x(52)#52 + 767 x(53)#53 + 214 x(54)#54 + 746 x(55)#55
      + 694 x(56)#56 + 289 x(57)#57 + 565 x(58)#58 + 485 x(59)#59 + 28 x(60)#60
      + 817 x(61)#61 + 348 x(62)#62 + 233 x(63)#63 + 437 x(64)#64
      + 193 x(65)#65 + 21 x(66)#66 + 683 x(67)#67 + 445 x(68)#68 + 626 x(69)#69
      + 294 x(70)#70 + 861 x(71)#71 + 208 x(72)#72 + 918 x(73)#73
      + 835 x(74)#74 + 219 x(75)#75 + 732 x(76)#76 + 223 x(77)#77
      + 564 x(78)#78 + 258 x(79)#79 + 36 x(80)#80 + 669 x(81)#81 + 126 x(82)#82
      + 862 x(83)#83 + 373 x(84)#84 + 170 x(85)#85 + 98 x(86)#86 + 434 x(87)#87
      + 174 x(88)#88 + 886 x(89)#89 + 680 x(90)#90 + 133 x(91)#91
      + 338 x(92)#92 + 825 x(93)#93 + 242 x(94)#94 + 118 x(95)#95
      + 389 x(96)#96 + 140 x(97)#97 + 145 x(98)#98 + 209 x(99)#99 <= 32372
 c2:  136 x(0)#0 + 958 x(1)#1 + 383 x(2)#2 + 525 x(3)#3 + 549 x(4)#4
      + 327 x(5)#5 + 505 x(6)#6 + 715 x(7)#7 + 465 x(8)#8 + 967 x(9)#9
      + 114 x(10)#10 + 646 x(11)#11 + 868 x(12)#12 + 836 x(13)#13
      + 319 x(14)#14 + 739 x(15)#15 + 377 x(16)#16 + 85 x(17)#17 + 767 x(18)#18
      + 831 x(19)#19 + 302 x(20)#20 + 778 x(21)#21 + 847 x(22)#22
      + 363 x(23)#23 + 275 x(24)#24 + 247 x(25)#25 + 687 x(26)#26 + 32 x(27)#27
      + 530 x(28)#28 + 804 x(29)#29 + 245 x(30)#30 + 714 x(31)#31
      + 811 x(32)#32 + 943 x(33)#33 + 413 x(34)#34 + 47 x(35)#35 + 157 x(36)#36
      + 76 x(37)#37 + 277 x(38)#38 + 916 x(39)#39 + 995 x(40)#40 + 817 x(41)#41
      + 154 x(42)#42 + 643 x(43)#43 + 572 x(44)#44 + 652 x(45)#45
      + 389 x(46)#46 + 406 x(47)#47 + 441 x(48)#48 + 569 x(49)#49
      + 387 x(50)#50 + 75 x(51)#51 + 196 x(52)#52 + 37 x(53)#53 + 616 x(54)#54
      + 165 x(55)#55 + 742 x(56)#56 + 124 x(57)#57 + 529 x(58)#58
      + 550 x(59)#59 + 613 x(60)#60 + 378 x(61)#61 + 75 x(62)#62 + 838 x(63)#63
      + 758 x(64)#64 + 644 x(65)#65 + 646 x(66)#66 + 858 x(67)#67
      + 224 x(68)#68 + 588 x(69)#69 + 681 x(70)#70 + 149 x(71)#71
      + 804 x(72)#72 + 742 x(73)#73 + 548 x(74)#74 + 272 x(75)#75
      + 286 x(76)#76 + 814 x(77)#77 + 376 x(78)#78 + 689 x(79)#79
      + 581 x(80)#80 + 997 x(81)#81 + 623 x(82)#82 + 124 x(83)#83
      + 514 x(84)#84 + 672 x(85)#85 + 419 x(86)#86 + 436 x(87)#87
      + 867 x(88)#88 + 47 x(89)#89 + 344 x(90)#90 + 144 x(91)#91 + 692 x(92)#92
      + 990 x(93)#93 + 265 x(94)#94 + 661 x(95)#95 + 489 x(96)#96
      + 677 x(97)#97 + 451 x(98)#98 + 215 x(99)#99 <= 38120
 c3:  175 x(0)#0 + 152 x(1)#1 + 587 x(2)#2 + 184 x(3)#3 + 363 x(4)#4
      + 421 x(5)#5 + 888 x(6)#6 + 220 x(7)#7 + 985 x(8)#8 + 113 x(9)#9
      + 736 x(10)#10 + 922 x(11)#11 + 502 x(12)#12 + 226 x(13)#13
      + 707 x(14)#14 + 299 x(15)#15 + 55 x(16)#16 + 786 x(17)#17 + 338 x(18)#18
      + 352 x(19)#19 + 930 x(20)#20 + 625 x(21)#21 + 510 x(22)#22
      + 645 x(23)#23 + 361 x(24)#24 + 167 x(25)#25 + 560 x(26)#26
      + 471 x(27)#27 + 437 x(28)#28 + 211 x(29)#29 + 83 x(30)#30 + 735 x(31)#31
      + 576 x(32)#32 + 526 x(33)#33 + 747 x(34)#34 + 67 x(35)#35 + 297 x(36)#36
      + 159 x(37)#37 + 261 x(38)#38 + 929 x(39)#39 + 413 x(40)#40
      + 582 x(41)#41 + 36 x(42)#42 + 115 x(43)#43 + 898 x(44)#44 + 199 x(45)#45
      + 62 x(46)#46 + 281 x(47)#47 + 84 x(48)#48 + 492 x(49)#49 + 331 x(50)#50
      + 529 x(51)#51 + 203 x(52)#52 + 249 x(53)#53 + 361 x(54)#54
      + 711 x(55)#55 + 818 x(56)#56 + 373 x(57)#57 + 351 x(58)#58 + 68 x(59)#59
      + 25 x(60)#60 + 429 x(61)#61 + 672 x(62)#62 + 160 x(63)#63 + 533 x(64)#64
      + 105 x(65)#65 + 563 x(66)#66 + 752 x(67)#67 + 988 x(68)#68
      + 971 x(69)#69 + 788 x(70)#70 + 269 x(71)#71 + 691 x(72)#72
      + 348 x(73)#73 + 260 x(74)#74 + 322 x(75)#75 + 851 x(76)#76
      + 645 x(77)#77 + 378 x(78)#78 + 340 x(79)#79 + 543 x(80)#80
      + 997 x(81)#81 + 470 x(82)#82 + 863 x(83)#83 + 111 x(84)#84
      + 631 x(85)#85 + 265 x(86)#86 + 356 x(87)#87 + 570 x(88)#88
      + 473 x(89)#89 + 679 x(90)#90 + 692 x(91)#91 + 292 x(92)#92 + 68 x(93)#93
      + 767 x(94)#94 + 59 x(95)#95 + 221 x(96)#96 + 447 x(97)#97 + 313 x(98)#98
      + 5 x(99)#99 <= 33282
 c4:  438 x(0)#0 + 730 x(1)#1 + 84 x(2)#2 + 938 x(3)#3 + 473 x(4)#4 + 11 x(5)#5
      + 738 x(6)#6 + 41 x(7)#7 + 432 x(8)#8 + 307 x(9)#9 + 140 x(10)#10
      + 341 x(11)#11 + 146 x(12)#12 + 213 x(13)#13 + 245 x(14)#14
      + 386 x(15)#15 + 532 x(16)#16 + 268 x(17)#17 + 88 x(18)#18 + 725 x(19)#19
      + 422 x(20)#20 + 730 x(21)#21 + 464 x(22)#22 + 327 x(23)#23
      + 809 x(24)#24 + 183 x(25)#25 + 723 x(26)#26 + 360 x(27)#27
      + 888 x(28)#28 + 512 x(29)#29 + 926 x(30)#30 + 267 x(31)#31
      + 406 x(32)#32 + 787 x(33)#33 + 263 x(34)#34 + 222 x(35)#35
      + 489 x(36)#36 + 268 x(37)#37 + 444 x(38)#38 + 974 x(39)#39
      + 401 x(40)#40 + 713 x(41)#41 + 799 x(42)#42 + 44 x(43)#43 + 140 x(44)#44
      + 917 x(45)#45 + 486 x(46)#46 + 945 x(47)#47 + 572 x(48)#48
      + 903 x(49)#49 + 956 x(50)#50 + 19 x(51)#51 + 559 x(52)#52 + 344 x(53)#53
      + 737 x(54)#54 + 469 x(55)#55 + 525 x(56)#56 + 543 x(57)#57
      + 154 x(58)#58 + 583 x(59)#59 + 623 x(60)#60 + 965 x(61)#61
      + 673 x(62)#62 + 187 x(63)#63 + 572 x(64)#64 + 815 x(65)#65
      + 467 x(66)#66 + 770 x(67)#67 + 74 x(68)#68 + 54 x(69)#69 + 235 x(70)#70
      + 338 x(71)#71 + 206 x(72)#72 + 480 x(73)#73 + 601 x(74)#74
      + 265 x(75)#75 + 917 x(76)#76 + 589 x(77)#77 + 210 x(78)#78 + 62 x(79)#79
      + 254 x(80)#80 + 369 x(81)#81 + 262 x(82)#82 + 564 x(83)#83
      + 166 x(84)#84 + 916 x(85)#85 + 412 x(86)#86 + 517 x(87)#87
      + 617 x(88)#88 + 771 x(89)#89 + 637 x(90)#90 + 144 x(91)#91
      + 280 x(92)#92 + 333 x(93)#93 + 11 x(94)#94 + 691 x(95)#95 + 304 x(96)#96
      + 37 x(97)#97 + 336 x(98)#98 + 823 x(99)#99 <= 34572
 c5:  332 x(0)#0 + 170 x(1)#1 + 614 x(2)#2 + 789 x(3)#3 + 984 x(4)#4
      + 703 x(5)#5 + 291 x(6)#6 + 180 x(7)#7 + 637 x(8)#8 + 643 x(9)#9
      + 776 x(10)#10 + 768 x(11)#11 + 291 x(12)#12 + 513 x(13)#13
      + 661 x(14)#14 + 281 x(15)#15 + 33 x(16)#16 + 982 x(17)#17 + 583 x(18)#18
      + 153 x(19)#19 + 950 x(20)#20 + 276 x(21)#21 + 548 x(22)#22
      + 979 x(23)#23 + 861 x(24)#24 + 848 x(25)#25 + 972 x(26)#26
      + 148 x(27)#27 + 426 x(28)#28 + 925 x(29)#29 + 776 x(30)#30
      + 515 x(31)#31 + 208 x(32)#32 + 583 x(33)#33 + 967 x(34)#34
      + 263 x(35)#35 + 326 x(36)#36 + 567 x(37)#37 + 572 x(38)#38
      + 325 x(39)#39 + 300 x(40)#40 + 594 x(41)#41 + 425 x(42)#42
      + 302 x(43)#43 + 849 x(44)#44 + 968 x(45)#45 + 538 x(46)#46
      + 218 x(47)#47 + 26 x(48)#48 + 709 x(49)#49 + 154 x(50)#50 + 32 x(51)#51
      + 843 x(52)#52 + 713 x(53)#53 + 758 x(54)#54 + 456 x(55)#55
      + 365 x(56)#56 + 911 x(57)#57 + 771 x(58)#58 + 902 x(59)#59
      + 451 x(60)#60 + 272 x(61)#61 + 417 x(62)#62 + 271 x(63)#63
      + 716 x(64)#64 + 198 x(65)#65 + 20 x(66)#66 + 369 x(67)#67 + 512 x(68)#68
      + 503 x(69)#69 + 485 x(70)#70 + 596 x(71)#71 + 979 x(72)#72
      + 423 x(73)#73 + 45 x(74)#74 + 114 x(75)#75 + 322 x(76)#76 + 917 x(77)#77
      + 541 x(78)#78 + 248 x(79)#79 + 81 x(80)#80 + 201 x(81)#81 + 214 x(82)#82
      + 249 x(83)#83 + 304 x(84)#84 + 58 x(85)#85 + 404 x(86)#86 + 231 x(87)#87
      + 168 x(88)#88 + 786 x(89)#89 + 970 x(90)#90 + 809 x(91)#91
      + 346 x(92)#92 + 421 x(93)#93 + 691 x(94)#94 + 411 x(95)#95
      + 714 x(96)#96 + 550 x(97)#97 + 453 x(98)#98 + 456 x(99)#99 <= 37627
 c6:  510 x(0)#0 + 264 x(1)#1 + 262 x(2)#2 + 713 x(3)#3 + 49 x(4)#4
      + 517 x(5)#5 + 172 x(6)#6 + 162 x(7)#7 + 485 x(8)#8 + 328 x(9)#9
      + 118 x(10)#10 + 833 x(11)#11 + 668 x(12)#12 + 963 x(13)#13
      + 731 x(14)#14 + 414 x(15)#15 + 29 x(16)#16 + 840 x(17)#17 + 886 x(18)#18
      + 624 x(19)#19 + 415 x(20)#20 + 439 x(21)#21 + 774 x(22)#22
      + 165 x(23)#23 + 767 x(24)#24 + 965 x(25)#25 + 528 x(26)#26
      + 847 x(27)#27 + 361 x(28)#28 + 647 x(29)#29 + 756 x(30)#30
      + 391 x(31)#31 + 280 x(32)#32 + 617 x(33)#33 + 935 x(34)#34
      + 523 x(35)#35 + 726 x(36)#36 + 889 x(37)#37 + 685 x(38)#38
      + 384 x(39)#39 + 106 x(40)#40 + 722 x(41)#41 + 676 x(42)#42
      + 565 x(43)#43 + 636 x(44)#44 + 202 x(45)#45 + 553 x(46)#46
      + 341 x(47)#47 + 402 x(48)#48 + 834 x(49)#49 + 563 x(50)#50 + 10 x(51)#51
      + 624 x(52)#52 + 9 x(53)#53 + 42 x(54)#54 + 242 x(55)#55 + 826 x(56)#56
      + 815 x(57)#57 + 350 x(58)#58 + 315 x(59)#59 + 121 x(60)#60
      + 826 x(61)#61 + 599 x(62)#62 + 941 x(63)#63 + 166 x(64)#64
      + 883 x(65)#65 + 31 x(66)#66 + 700 x(67)#67 + 530 x(68)#68 + 261 x(69)#69
      + 881 x(70)#70 + 386 x(71)#71 + 641 x(72)#72 + 867 x(73)#73
      + 656 x(74)#74 + 398 x(75)#75 + 370 x(76)#76 + 222 x(77)#77
      + 871 x(78)#78 + 591 x(79)#79 + 800 x(80)#80 + 905 x(81)#81
      + 133 x(82)#82 + 127 x(83)#83 + 85 x(84)#84 + 261 x(85)#85 + 508 x(86)#86
      + 824 x(87)#87 + 787 x(88)#88 + 668 x(89)#89 + 77 x(90)#90 + 679 x(91)#91
      + 530 x(92)#92 + 662 x(93)#93 + 534 x(94)#94 + 922 x(95)#95
      + 737 x(96)#96 + 933 x(97)#97 + 343 x(98)#98 + 579 x(99)#99 <= 39398
 c7:  53 x(0)#0 + 753 x(1)#1 + 167 x(2)#2 + 825 x(3)#3 + 235 x(4)#4
      + 386 x(5)#5 + 993 x(6)#6 + 107 x(7)#7 + 557 x(8)#8 + 32 x(9)#9
      + 62 x(10)#10 + 165 x(11)#11 + 981 x(12)#12 + 396 x(13)#13 + 713 x(14)#14
      + 70 x(15)#15 + 461 x(16)#16 + 438 x(17)#17 + 253 x(18)#18 + 134 x(19)#19
      + 443 x(20)#20 + 235 x(21)#21 + 431 x(22)#22 + 163 x(23)#23
      + 501 x(24)#24 + 132 x(25)#25 + 459 x(26)#26 + 590 x(27)#27 + 16 x(28)#28
      + 655 x(29)#29 + 623 x(30)#30 + 247 x(31)#31 + 728 x(32)#32
      + 652 x(33)#33 + 601 x(34)#34 + 798 x(35)#35 + 718 x(36)#36
      + 383 x(37)#37 + 889 x(38)#38 + 60 x(39)#39 + 261 x(40)#40 + 576 x(41)#41
      + 846 x(42)#42 + 341 x(43)#43 + 931 x(44)#44 + 740 x(45)#45
      + 762 x(46)#46 + 526 x(47)#47 + 184 x(48)#48 + 105 x(49)#49
      + 773 x(50)#50 + 374 x(51)#51 + 200 x(52)#52 + 548 x(53)#53 + 90 x(54)#54
      + 814 x(55)#55 + 177 x(56)#56 + 75 x(57)#57 + 452 x(58)#58 + 176 x(59)#59
      + 947 x(60)#60 + 722 x(61)#61 + 958 x(62)#62 + 226 x(63)#63
      + 289 x(64)#64 + 414 x(65)#65 + 117 x(66)#66 + 607 x(67)#67
      + 380 x(68)#68 + 514 x(69)#69 + 38 x(70)#70 + 753 x(71)#71 + 778 x(72)#72
      + 429 x(73)#73 + 126 x(74)#74 + 72 x(75)#75 + 857 x(76)#76 + 152 x(77)#77
      + 694 x(78)#78 + 545 x(79)#79 + 526 x(80)#80 + 72 x(81)#81 + 211 x(82)#82
      + 23 x(83)#83 + 692 x(84)#84 + 656 x(85)#85 + 535 x(86)#86 + 578 x(87)#87
      + 845 x(88)#88 + 804 x(89)#89 + 937 x(90)#90 + 658 x(91)#91
      + 930 x(92)#92 + 893 x(93)#93 + 629 x(94)#94 + 626 x(95)#95
      + 546 x(96)#96 + 128 x(97)#97 + 763 x(98)#98 + 605 x(99)#99 <= 35498
 c8:  964 x(0)#0 + 989 x(1)#1 + 936 x(2)#2 + 41 x(3)#3 + 85 x(4)#4 + 567 x(5)#5
      + 383 x(6)#6 + 590 x(7)#7 + 352 x(8)#8 + 96 x(9)#9 + 422 x(10)#10
      + 533 x(11)#11 + 832 x(12)#12 + 779 x(13)#13 + 56 x(14)#14 + 464 x(15)#15
      + 6 x(16)#16 + 927 x(17)#17 + 973 x(18)#18 + 686 x(19)#19 + 563 x(20)#20
      + 262 x(21)#21 + 988 x(22)#22 + 987 x(23)#23 + 53 x(24)#24 + 641 x(25)#25
      + 716 x(26)#26 + 616 x(27)#27 + 378 x(28)#28 + 585 x(29)#29 + 5 x(30)#30
      + 280 x(31)#31 + 134 x(32)#32 + 797 x(33)#33 + 273 x(34)#34
      + 606 x(35)#35 + 388 x(36)#36 + 671 x(37)#37 + 513 x(38)#38
      + 799 x(39)#39 + 998 x(40)#40 + 893 x(41)#41 + 425 x(42)#42
      + 723 x(43)#43 + 517 x(44)#44 + 833 x(45)#45 + 212 x(46)#46
      + 363 x(47)#47 + 919 x(48)#48 + 975 x(49)#49 + 878 x(50)#50
      + 265 x(51)#51 + 763 x(52)#52 + 330 x(53)#53 + 323 x(54)#54
      + 554 x(55)#55 + 397 x(56)#56 + 293 x(57)#57 + 794 x(58)#58 + 29 x(59)#59
      + 970 x(60)#60 + 209 x(61)#61 + 185 x(62)#62 + 400 x(63)#63 + 10 x(64)#64
      + 484 x(65)#65 + 535 x(66)#66 + 254 x(67)#67 + 273 x(68)#68
      + 820 x(69)#69 + 292 x(70)#70 + 115 x(71)#71 + 301 x(72)#72
      + 343 x(73)#73 + 377 x(74)#74 + 475 x(75)#75 + 69 x(76)#76 + 242 x(77)#77
      + 926 x(78)#78 + 822 x(79)#79 + 661 x(80)#80 + 739 x(81)#81
      + 984 x(82)#82 + 37 x(83)#83 + 643 x(84)#84 + 519 x(85)#85 + 239 x(86)#86
      + 264 x(87)#87 + 657 x(88)#88 + 426 x(89)#89 + 168 x(90)#90
      + 215 x(91)#91 + 112 x(92)#92 + 898 x(93)#93 + 223 x(94)#94
      + 709 x(95)#95 + 937 x(96)#96 + 610 x(97)#97 + 475 x(98)#98
      + 851 x(99)#99 <= 38167
 c9:  91 x(0)#0 + 727 x(1)#1 + 607 x(2)#2 + 698 x(3)#3 + 988 x(4)#4
      + 565 x(5)#5 + 515 x(6)#6 + 742 x(7)#7 + 48 x(8)#8 + 719 x(9)#9
      + 631 x(10)#10 + 691 x(11)#11 + 618 x(12)#12 + 936 x(13)#13
      + 291 x(14)#14 + 80 x(15)#15 + 245 x(16)#16 + 45 x(17)#17 + 751 x(18)#18
      + 998 x(19)#19 + 289 x(20)#20 + 167 x(21)#21 + 942 x(22)#22
      + 727 x(23)#23 + 134 x(24)#24 + 873 x(25)#25 + 761 x(26)#26
      + 391 x(27)#27 + 642 x(28)#28 + 286 x(29)#29 + 572 x(30)#30
      + 923 x(31)#31 + 802 x(32)#32 + 575 x(33)#33 + 763 x(34)#34
      + 612 x(35)#35 + 707 x(36)#36 + 695 x(37)#37 + 506 x(38)#38 + 66 x(39)#39
      + 86 x(40)#40 + 607 x(41)#41 + 335 x(42)#42 + 560 x(43)#43 + 164 x(44)#44
      + 304 x(45)#45 + 296 x(46)#46 + 299 x(47)#47 + 447 x(48)#48
      + 757 x(49)#49 + 684 x(50)#50 + 610 x(51)#51 + 901 x(52)#52
      + 964 x(53)#53 + 483 x(54)#54 + 637 x(55)#55 + 435 x(56)#56
      + 832 x(57)#57 + 245 x(58)#58 + 677 x(59)#59 + 845 x(60)#60
      + 408 x(61)#61 + 107 x(62)#62 + 288 x(63)#63 + 439 x(64)#64
      + 645 x(65)#65 + 407 x(66)#66 + 968 x(67)#67 + 794 x(68)#68
      + 189 x(69)#69 + 884 x(70)#70 + 352 x(71)#71 + 351 x(72)#72
      + 651 x(73)#73 + 997 x(74)#74 + 462 x(75)#75 + 365 x(76)#76
      + 131 x(77)#77 + 759 x(78)#78 + 495 x(79)#79 + 667 x(80)#80
      + 438 x(81)#81 + 46 x(82)#82 + 165 x(83)#83 + 93 x(84)#84 + 514 x(85)#85
      + 352 x(86)#86 + 681 x(87)#87 + 23 x(88)#88 + 870 x(89)#89 + 308 x(90)#90
      + 937 x(91)#91 + 954 x(92)#92 + 425 x(93)#93 + 552 x(94)#94
      + 424 x(95)#95 + 104 x(96)#96 + 456 x(97)#97 + 604 x(98)#98 + 88 x(99)#99
      <= 38985
 c10: 809 x(0)#0 + 753 x(1)#1 + 842 x(2)#2 + 864 x(3)#3 + 620 x(4)#4
      + 298 x(5)#5 + 386 x(6)#6 + 173 x(7)#7 + 205 x(8)#8 + 792 x(9)#9
      + 704 x(10)#10 + 754 x(11)#11 + 393 x(12)#12 + 273 x(13)#13
      + 421 x(14)#14 + 472 x(15)#15 + 618 x(16)#16 + 296 x(17)#17
      + 677 x(18)#18 + 883 x(19)#19 + 674 x(20)#20 + 252 x(21)#21
      + 925 x(22)#22 + 586 x(23)#23 + 65 x(24)#24 + 32 x(25)#25 + 946 x(26)#26
      + 868 x(27)#27 + 671 x(28)#28 + 392 x(29)#29 + 530 x(30)#30
      + 267 x(31)#31 + x(32)#32 + 944 x(33)#33 + 372 x(34)#34 + 226 x(35)#35
      + 972 x(36)#36 + 396 x(37)#37 + 454 x(38)#38 + 445 x(39)#39
      + 890 x(40)#40 + 607 x(41)#41 + 114 x(42)#42 + 597 x(43)#43
      + 487 x(44)#44 + 613 x(45)#45 + 344 x(46)#46 + 545 x(47)#47
      + 682 x(48)#48 + 111 x(49)#49 + 82 x(50)#50 + 163 x(51)#51 + 772 x(52)#52
      + 409 x(53)#53 + 257 x(54)#54 + 479 x(55)#55 + 731 x(56)#56
      + 781 x(57)#57 + 827 x(58)#58 + 284 x(59)#59 + 155 x(60)#60 + 6 x(61)#61
      + 9 x(62)#62 + 240 x(63)#63 + 537 x(64)#64 + 36 x(65)#65 + 729 x(66)#66
      + 118 x(67)#67 + 95 x(68)#68 + 426 x(69)#69 + 265 x(70)#70 + 542 x(71)#71
      + 318 x(72)#72 + 521 x(73)#73 + 310 x(74)#74 + 64 x(75)#75 + 47 x(76)#76
      + 979 x(77)#77 + 160 x(78)#78 + 913 x(79)#79 + 951 x(80)#80
      + 542 x(81)#81 + 454 x(82)#82 + 33 x(83)#83 + 6 x(84)#84 + 406 x(85)#85
      + 272 x(86)#86 + 218 x(87)#87 + 422 x(88)#88 + 705 x(89)#89
      + 456 x(90)#90 + 160 x(91)#91 + 340 x(92)#92 + 17 x(93)#93 + 976 x(94)#94
      + 25 x(95)#95 + 577 x(96)#96 + 621 x(97)#97 + 434 x(98)#98 + 348 x(99)#99
      <= 34094
Bounds
 0 <= x(0)#0 <= 1
 0 <= x(1)#1 <= 1
 0 <= x(2)#2 <= 1
 0 <= x(3)#3 <= 1
 0 <= x(4)#4 <= 1
 0 <= x(5)#5 <= 1
 0 <= x(6)#6 <= 1
 0 <= x(7)#7 <= 1
 0 <= x(8)#8 <= 1
 0 <= x(9)#9 <= 1
 0 <= x(10)#10 <= 1
 0 <= x(11)#11 <= 1
 0 <= x(12)#12 <= 1
 0 <= x(13)#13 <= 1
 0 <= x(14)#14 <= 1
 0 <= x(15)#15 <= 1
 0 <= x(16)#16 <= 1
 0 <= x(17)#17 <= 1
 0 <= x(18)#18 <= 1
 0 <= x(19)#19 <= 1
 0 <= x(20)#20 <= 1
 0 <= x(21)#21 <= 1
 0 <= x(22)#22 <= 1
 0 <= x(23)#23 <= 1
 0 <= x(24)#24 <= 1
 0 <= x(25)#25 <= 1
 0 <= x(26)#26 <= 1
 0 <= x(27)#27 <= 1
 0 <= x(28)#28 <= 1
 0 <= x(29)#29 <= 1
 0 <= x(30)#30 <= 1
 0 <= x(31)#31 <= 1
 0 <= x(32)#32 <= 1
 0 <= x(33)#33 <= 1
 0 <= x(34)#34 <= 1
 0 <= x(35)#35 <= 1
 0 <= x(36)#36 <= 1
 0 <= x(37)#37 <= 1
 0 <= x(38)#38 <= 1
 0 <= x(39)#39 <= 1
 0 <= x(40)#40 <= 1
 0 <= x(41)#41 <= 1
 0 <= x(42)#42 <= 1
 0 <= x(43)#43 <= 1
 0 <= x(44)#44 <= 1
 0 <= x(45)#45 <= 1
 0 <= x(46)#46 <= 1
 0 <= x(47)#47 <= 1
 0 <= x(48)#48 <= 1
 0 <= x(49)#49 <= 1
 0 <= x(50)#50 <= 1
 0 <= x(51)#51 <= 1
 0 <= x(52)#52 <= 1
 0 <= x(53)#53 <= 1
 0 <= x(54)#54 <= 1
 0 <= x(55)#55 <= 1
 0 <= x(56)#56 <= 1
 0 <= x(57)#57 <= 1
 0 <= x(58)#58 <= 1
 0 <= x(59)#59 <= 1
 0 <= x(60)#60 <= 1
 0 <= x(61)#61 <= 1
 0 <= x(62)#62 <= 1
 0 <= x(63)#63 <= 1
 0 <= x(64)#64 <= 1
 0 <= x(65)#65 <= 1
 0 <= x(66)#66 <= 1
 0 <= x(67)#67 <= 1
 0 <= x(68)#68 <= 1
 0 <= x(69)#69 <= 1
 0 <= x(70)#70 <= 1
 0 <= x(71)#71 <= 1
 0 <= x(72)#72 <= 1
 0 <= x(73)#73 <= 1
 0 <= x(74)#74 <= 1
 0 <= x(75)#75 <= 1
 0 <= x(76)#76 <= 1
 0 <= x(77)#77 <= 1
 0 <= x(78)#78 <= 1
 0 <= x(79)#79 <= 1
 0 <= x(80)#80 <= 1
 0 <= x(81)#81 <= 1
 0 <= x(82)#82 <= 1
 0 <= x(83)#83 <= 1
 0 <= x(84)#84 <= 1
 0 <= x(85)#85 <= 1
 0 <= x(86)#86 <= 1
 0 <= x(87)#87 <= 1
 0 <= x(88)#88 <= 1
 0 <= x(89)#89 <= 1
 0 <= x(90)#90 <= 1
 0 <= x(91)#91 <= 1
 0 <= x(92)#92 <= 1
 0 <= x(93)#93 <= 1
 0 <= x(94)#94 <= 1
 0 <= x(95)#95 <= 1
 0 <= x(96)#96 <= 1
 0 <= x(97)#97 <= 1
 0 <= x(98)#98 <= 1
 0 <= x(99)#99 <= 1
Generals
 x(0)#0  x(1)#1  x(2)#2  x(3)#3  x(4)#4  x(5)#5  x(6)#6  x(7)#7  x(8)#8 
 x(9)#9  x(10)#10  x(11)#11  x(12)#12  x(13)#13  x(14)#14  x(15)#15  x(16)#16 
 x(17)#17  x(18)#18  x(19)#19  x(20)#20  x(21)#21  x(22)#22  x(23)#23 
 x(24)#24  x(25)#25  x(26)#26  x(27)#27  x(28)#28  x(29)#29  x(30)#30 
 x(31)#31  x(32)#32  x(33)#33  x(34)#34  x(35)#35  x(36)#36  x(37)#37 
 x(38)#38  x(39)#39  x(40)#40  x(41)#41  x(42)#42  x(43)#43  x(44)#44 
 x(45)#45  x(46)#46  x(47)#47  x(48)#48  x(49)#49  x(50)#50  x(51)#51 
 x(52)#52  x(53)#53  x(54)#54  x(55)#55  x(56)#56  x(57)#57  x(58)#58 
 x(59)#59  x(60)#60  x(61)#61  x(62)#62  x(63)#63  x(64)#64  x(65)#65 
 x(66)#66  x(67)#67  x(68)#68  x(69)#69  x(70)#70  x(71)#71  x(72)#72 
 x(73)#73  x(74)#74  x(75)#75  x(76)#76  x(77)#77  x(78)#78  x(79)#79 
 x(80)#80  x(81)#81  x(82)#82  x(83)#83  x(84)#84  x(85)#85  x(86)#86 
 x(87)#87  x(88)#88  x(89)#89  x(90)#90  x(91)#91  x(92)#92  x(93)#93 
 x(94)#94  x(95)#95  x(96)#96  x(97)#97  x(98)#98  x(99)#99 
End
